p edge 100 1485
e 1 2
e 1 4
e 1 13
e 1 17
e 1 19
e 1 21
e 1 22
e 1 29
e 1 30
e 1 32
e 1 34
e 1 35
e 1 38
e 1 48
e 1 49
e 1 50
e 1 58
e 1 59
e 1 61
e 1 63
e 1 65
e 1 69
e 1 77
e 1 78
e 1 82
e 1 83
e 1 94
e 1 95
e 1 99
e 1 100
e 2 7
e 2 9
e 2 11
e 2 13
e 2 14
e 2 16
e 2 18
e 2 19
e 2 23
e 2 28
e 2 30
e 2 33
e 2 39
e 2 49
e 2 53
e 2 54
e 2 62
e 2 63
e 2 64
e 2 68
e 2 75
e 2 81
e 2 82
e 2 85
e 2 89
e 2 91
e 3 8
e 3 10
e 3 11
e 3 16
e 3 23
e 3 33
e 3 36
e 3 41
e 3 43
e 3 45
e 3 50
e 3 51
e 3 55
e 3 56
e 3 57
e 3 58
e 3 59
e 3 60
e 3 63
e 3 68
e 3 73
e 3 78
e 3 81
e 3 83
e 3 84
e 3 85
e 3 93
e 3 99
e 3 100
e 4 7
e 4 8
e 4 14
e 4 15
e 4 17
e 4 24
e 4 26
e 4 28
e 4 29
e 4 30
e 4 33
e 4 35
e 4 36
e 4 38
e 4 41
e 4 47
e 4 53
e 4 54
e 4 56
e 4 59
e 4 60
e 4 61
e 4 67
e 4 68
e 4 76
e 4 79
e 4 80
e 4 82
e 4 86
e 4 90
e 4 92
e 4 93
e 4 96
e 4 97
e 4 98
e 4 99
e 5 6
e 5 7
e 5 15
e 5 16
e 5 27
e 5 32
e 5 39
e 5 40
e 5 41
e 5 42
e 5 45
e 5 58
e 5 60
e 5 71
e 5 76
e 5 78
e 5 85
e 5 86
e 5 87
e 5 89
e 5 90
e 5 96
e 5 97
e 6 13
e 6 15
e 6 22
e 6 23
e 6 24
e 6 26
e 6 32
e 6 33
e 6 39
e 6 40
e 6 41
e 6 43
e 6 44
e 6 45
e 6 49
e 6 52
e 6 53
e 6 54
e 6 60
e 6 68
e 6 69
e 6 72
e 6 73
e 6 77
e 6 79
e 6 80
e 6 81
e 6 82
e 6 87
e 6 88
e 6 90
e 6 91
e 6 92
e 6 94
e 6 95
e 7 12
e 7 16
e 7 20
e 7 22
e 7 27
e 7 29
e 7 30
e 7 36
e 7 43
e 7 47
e 7 49
e 7 52
e 7 53
e 7 56
e 7 57
e 7 59
e 7 60
e 7 61
e 7 63
e 7 67
e 7 69
e 7 72
e 7 73
e 7 76
e 7 78
e 7 81
e 7 88
e 7 89
e 7 97
e 8 18
e 8 25
e 8 29
e 8 36
e 8 37
e 8 38
e 8 45
e 8 56
e 8 60
e 8 61
e 8 69
e 8 76
e 8 83
e 8 84
e 8 85
e 8 93
e 8 95
e 9 14
e 9 18
e 9 24
e 9 26
e 9 31
e 9 33
e 9 41
e 9 42
e 9 44
e 9 50
e 9 52
e 9 55
e 9 64
e 9 65
e 9 76
e 9 80
e 9 83
e 9 85
e 9 93
e 9 95
e 9 96
e 9 100
e 10 13
e 10 17
e 10 20
e 10 23
e 10 24
e 10 27
e 10 28
e 10 30
e 10 32
e 10 33
e 10 39
e 10 40
e 10 43
e 10 44
e 10 45
e 10 47
e 10 49
e 10 50
e 10 54
e 10 60
e 10 64
e 10 67
e 10 76
e 10 78
e 10 79
e 10 80
e 10 84
e 10 93
e 10 95
e 10 98
e 11 13
e 11 16
e 11 17
e 11 18
e 11 20
e 11 23
e 11 25
e 11 30
e 11 39
e 11 42
e 11 48
e 11 54
e 11 57
e 11 59
e 11 60
e 11 63
e 11 65
e 11 68
e 11 69
e 11 71
e 11 72
e 11 73
e 11 84
e 11 85
e 11 99
e 11 100
e 12 14
e 12 19
e 12 24
e 12 34
e 12 39
e 12 53
e 12 64
e 12 72
e 12 76
e 12 80
e 12 81
e 12 83
e 12 85
e 12 88
e 12 98
e 12 99
e 12 100
e 13 14
e 13 15
e 13 17
e 13 20
e 13 25
e 13 28
e 13 32
e 13 34
e 13 35
e 13 42
e 13 43
e 13 44
e 13 48
e 13 54
e 13 57
e 13 58
e 13 65
e 13 66
e 13 68
e 13 71
e 13 73
e 13 78
e 13 81
e 13 89
e 13 90
e 13 91
e 13 93
e 14 19
e 14 20
e 14 22
e 14 23
e 14 25
e 14 40
e 14 41
e 14 46
e 14 48
e 14 56
e 14 57
e 14 62
e 14 64
e 14 65
e 14 66
e 14 68
e 14 70
e 14 71
e 14 72
e 14 74
e 14 76
e 14 77
e 14 83
e 14 84
e 14 85
e 14 88
e 14 97
e 14 100
e 15 16
e 15 27
e 15 28
e 15 32
e 15 33
e 15 36
e 15 40
e 15 50
e 15 52
e 15 55
e 15 56
e 15 62
e 15 68
e 15 69
e 15 70
e 15 71
e 15 73
e 15 78
e 15 80
e 15 82
e 15 86
e 15 91
e 15 92
e 15 94
e 15 95
e 15 96
e 15 97
e 16 17
e 16 18
e 16 19
e 16 26
e 16 32
e 16 35
e 16 36
e 16 37
e 16 41
e 16 50
e 16 53
e 16 54
e 16 60
e 16 64
e 16 69
e 16 71
e 16 74
e 16 78
e 16 80
e 16 83
e 16 87
e 16 89
e 17 20
e 17 27
e 17 34
e 17 37
e 17 39
e 17 40
e 17 48
e 17 50
e 17 54
e 17 58
e 17 59
e 17 60
e 17 69
e 17 73
e 17 75
e 17 79
e 17 81
e 17 90
e 17 93
e 17 96
e 17 98
e 17 100
e 18 21
e 18 22
e 18 26
e 18 30
e 18 34
e 18 35
e 18 37
e 18 41
e 18 42
e 18 45
e 18 47
e 18 48
e 18 49
e 18 50
e 18 53
e 18 58
e 18 62
e 18 63
e 18 65
e 18 68
e 18 70
e 18 74
e 18 78
e 18 81
e 18 84
e 18 94
e 18 97
e 18 100
e 19 25
e 19 27
e 19 30
e 19 35
e 19 42
e 19 44
e 19 47
e 19 61
e 19 62
e 19 64
e 19 65
e 19 66
e 19 69
e 19 72
e 19 75
e 19 78
e 19 84
e 19 85
e 19 88
e 19 91
e 19 92
e 19 93
e 19 94
e 19 100
e 20 21
e 20 28
e 20 30
e 20 32
e 20 34
e 20 37
e 20 42
e 20 43
e 20 46
e 20 48
e 20 57
e 20 59
e 20 61
e 20 63
e 20 65
e 20 66
e 20 70
e 20 71
e 20 72
e 20 73
e 20 81
e 20 86
e 20 88
e 20 91
e 20 93
e 20 96
e 20 99
e 21 23
e 21 28
e 21 31
e 21 37
e 21 38
e 21 41
e 21 42
e 21 45
e 21 49
e 21 51
e 21 53
e 21 56
e 21 59
e 21 66
e 21 69
e 21 71
e 21 74
e 21 77
e 21 79
e 21 80
e 21 81
e 21 85
e 21 87
e 21 88
e 21 89
e 21 90
e 21 93
e 21 94
e 21 96
e 22 28
e 22 30
e 22 33
e 22 34
e 22 36
e 22 37
e 22 41
e 22 44
e 22 47
e 22 48
e 22 54
e 22 55
e 22 57
e 22 60
e 22 61
e 22 62
e 22 64
e 22 68
e 22 72
e 22 73
e 22 74
e 22 75
e 22 77
e 22 80
e 22 83
e 22 84
e 22 87
e 22 88
e 22 92
e 22 96
e 22 97
e 22 100
e 23 24
e 23 25
e 23 31
e 23 33
e 23 42
e 23 43
e 23 44
e 23 45
e 23 48
e 23 49
e 23 50
e 23 51
e 23 53
e 23 54
e 23 56
e 23 65
e 23 66
e 23 67
e 23 72
e 23 73
e 23 78
e 23 80
e 23 81
e 23 90
e 23 91
e 23 93
e 23 94
e 23 95
e 23 96
e 23 97
e 23 99
e 23 100
e 24 28
e 24 33
e 24 38
e 24 45
e 24 49
e 24 51
e 24 56
e 24 57
e 24 59
e 24 60
e 24 61
e 24 64
e 24 66
e 24 68
e 24 69
e 24 72
e 24 74
e 24 79
e 24 80
e 24 87
e 24 90
e 24 100
e 25 27
e 25 28
e 25 34
e 25 35
e 25 36
e 25 41
e 25 42
e 25 47
e 25 56
e 25 57
e 25 58
e 25 60
e 25 61
e 25 64
e 25 65
e 25 71
e 25 75
e 25 83
e 25 89
e 25 91
e 25 94
e 25 99
e 26 28
e 26 33
e 26 41
e 26 42
e 26 43
e 26 44
e 26 50
e 26 53
e 26 57
e 26 68
e 26 71
e 26 80
e 26 89
e 26 92
e 26 95
e 26 96
e 27 34
e 27 35
e 27 37
e 27 38
e 27 40
e 27 41
e 27 45
e 27 47
e 27 49
e 27 53
e 27 64
e 27 69
e 27 72
e 27 76
e 27 77
e 27 79
e 27 81
e 27 87
e 27 88
e 27 89
e 27 94
e 27 99
e 28 31
e 28 33
e 28 35
e 28 40
e 28 44
e 28 51
e 28 52
e 28 53
e 28 58
e 28 61
e 28 66
e 28 67
e 28 70
e 28 72
e 28 82
e 28 84
e 28 85
e 28 87
e 28 93
e 29 32
e 29 33
e 29 35
e 29 38
e 29 43
e 29 47
e 29 48
e 29 55
e 29 56
e 29 57
e 29 61
e 29 65
e 29 68
e 29 69
e 29 70
e 29 73
e 29 75
e 29 87
e 29 89
e 29 92
e 29 96
e 29 99
e 30 34
e 30 36
e 30 39
e 30 41
e 30 42
e 30 43
e 30 45
e 30 55
e 30 68
e 30 73
e 30 76
e 30 78
e 30 80
e 30 93
e 30 94
e 30 100
e 31 34
e 31 37
e 31 48
e 31 64
e 31 69
e 31 77
e 31 80
e 31 82
e 31 88
e 31 90
e 31 95
e 31 96
e 31 99
e 32 35
e 32 37
e 32 39
e 32 41
e 32 45
e 32 50
e 32 51
e 32 55
e 32 56
e 32 60
e 32 68
e 32 71
e 32 72
e 32 76
e 32 80
e 32 81
e 32 83
e 32 86
e 32 87
e 32 91
e 32 93
e 32 94
e 32 95
e 32 96
e 32 97
e 32 99
e 33 35
e 33 44
e 33 45
e 33 48
e 33 50
e 33 51
e 33 52
e 33 55
e 33 56
e 33 60
e 33 61
e 33 66
e 33 71
e 33 73
e 33 78
e 33 81
e 33 86
e 33 87
e 33 95
e 34 37
e 34 39
e 34 50
e 34 56
e 34 59
e 34 61
e 34 75
e 34 76
e 34 80
e 34 81
e 34 82
e 34 83
e 34 86
e 34 87
e 34 88
e 34 89
e 34 90
e 34 96
e 34 97
e 34 98
e 34 99
e 35 41
e 35 42
e 35 43
e 35 58
e 35 72
e 35 81
e 35 83
e 35 93
e 35 98
e 36 37
e 36 39
e 36 40
e 36 41
e 36 42
e 36 44
e 36 49
e 36 50
e 36 52
e 36 53
e 36 62
e 36 66
e 36 67
e 36 69
e 36 73
e 36 76
e 36 80
e 36 82
e 36 83
e 36 89
e 36 92
e 36 94
e 36 95
e 37 42
e 37 46
e 37 53
e 37 66
e 37 67
e 37 74
e 37 78
e 37 79
e 37 83
e 37 86
e 37 87
e 37 93
e 37 94
e 37 95
e 38 40
e 38 43
e 38 47
e 38 49
e 38 51
e 38 53
e 38 54
e 38 55
e 38 57
e 38 58
e 38 59
e 38 64
e 38 68
e 38 71
e 38 73
e 38 76
e 38 80
e 38 81
e 38 82
e 38 85
e 38 88
e 38 92
e 38 97
e 38 98
e 38 99
e 39 43
e 39 45
e 39 46
e 39 48
e 39 60
e 39 61
e 39 62
e 39 64
e 39 65
e 39 68
e 39 70
e 39 71
e 39 74
e 39 76
e 39 78
e 39 80
e 39 81
e 39 87
e 39 88
e 39 90
e 39 96
e 39 99
e 40 41
e 40 42
e 40 45
e 40 46
e 40 47
e 40 49
e 40 56
e 40 57
e 40 58
e 40 59
e 40 62
e 40 63
e 40 64
e 40 71
e 40 74
e 40 77
e 40 85
e 40 94
e 40 95
e 40 97
e 40 99
e 40 100
e 41 43
e 41 45
e 41 47
e 41 58
e 41 60
e 41 67
e 41 68
e 41 79
e 41 80
e 41 81
e 41 83
e 41 84
e 41 86
e 41 88
e 41 89
e 41 90
e 41 94
e 41 95
e 41 98
e 42 43
e 42 45
e 42 50
e 42 60
e 42 68
e 42 69
e 42 70
e 42 71
e 42 72
e 42 76
e 42 81
e 42 90
e 42 93
e 42 94
e 42 96
e 42 99
e 43 45
e 43 50
e 43 58
e 43 61
e 43 69
e 43 72
e 43 73
e 43 80
e 43 81
e 43 86
e 43 91
e 43 93
e 43 98
e 43 99
e 44 47
e 44 50
e 44 51
e 44 52
e 44 53
e 44 54
e 44 58
e 44 59
e 44 62
e 44 63
e 44 84
e 44 86
e 44 94
e 44 96
e 44 99
e 45 49
e 45 52
e 45 53
e 45 56
e 45 59
e 45 61
e 45 64
e 45 82
e 45 83
e 45 85
e 45 90
e 45 91
e 45 96
e 45 97
e 45 98
e 46 51
e 46 57
e 46 59
e 46 64
e 46 67
e 46 69
e 46 71
e 46 73
e 46 77
e 46 80
e 46 81
e 46 82
e 46 84
e 46 87
e 46 89
e 46 90
e 46 99
e 47 48
e 47 50
e 47 52
e 47 60
e 47 63
e 47 71
e 47 72
e 47 74
e 47 79
e 47 80
e 47 88
e 47 91
e 47 95
e 47 96
e 47 97
e 48 49
e 48 50
e 48 51
e 48 55
e 48 59
e 48 66
e 48 68
e 48 70
e 48 73
e 48 74
e 48 75
e 48 76
e 48 82
e 48 85
e 48 89
e 48 93
e 48 97
e 48 99
e 49 53
e 49 57
e 49 58
e 49 59
e 49 62
e 49 67
e 49 69
e 49 70
e 49 73
e 49 78
e 49 81
e 49 82
e 49 86
e 49 89
e 49 90
e 49 97
e 50 53
e 50 55
e 50 64
e 50 69
e 50 76
e 50 77
e 50 79
e 50 81
e 50 88
e 50 89
e 50 92
e 51 53
e 51 54
e 51 60
e 51 61
e 51 63
e 51 69
e 51 70
e 51 73
e 51 75
e 51 78
e 51 79
e 51 80
e 51 84
e 51 85
e 51 86
e 51 87
e 51 89
e 51 95
e 51 97
e 51 98
e 51 100
e 52 54
e 52 56
e 52 64
e 52 65
e 52 71
e 52 74
e 52 89
e 52 96
e 52 97
e 52 98
e 52 99
e 53 58
e 53 62
e 53 76
e 53 77
e 53 81
e 53 83
e 53 85
e 53 91
e 53 99
e 53 100
e 54 56
e 54 58
e 54 62
e 54 66
e 54 70
e 54 73
e 54 77
e 54 78
e 54 79
e 54 80
e 54 84
e 54 85
e 54 87
e 54 90
e 54 91
e 55 56
e 55 60
e 55 61
e 55 63
e 55 65
e 55 69
e 55 71
e 55 75
e 55 84
e 55 87
e 55 89
e 55 93
e 55 95
e 55 99
e 55 100
e 56 58
e 56 63
e 56 64
e 56 67
e 56 69
e 56 71
e 56 72
e 56 74
e 56 75
e 56 76
e 56 85
e 56 87
e 56 93
e 56 94
e 56 95
e 56 96
e 56 98
e 57 60
e 57 68
e 57 71
e 57 72
e 57 80
e 57 86
e 57 88
e 57 89
e 57 90
e 57 93
e 58 59
e 58 65
e 58 67
e 58 68
e 58 74
e 58 82
e 58 87
e 58 88
e 58 90
e 58 98
e 58 99
e 58 100
e 59 62
e 59 63
e 59 65
e 59 66
e 59 82
e 59 91
e 59 92
e 60 68
e 60 77
e 60 81
e 60 85
e 60 86
e 60 88
e 60 89
e 60 91
e 60 92
e 60 94
e 60 97
e 60 98
e 60 100
e 61 64
e 61 65
e 61 66
e 61 68
e 61 75
e 61 77
e 61 78
e 61 83
e 61 86
e 61 88
e 61 89
e 61 91
e 62 74
e 62 76
e 62 77
e 62 81
e 62 82
e 62 85
e 62 88
e 62 90
e 62 93
e 62 94
e 62 95
e 62 96
e 63 66
e 63 74
e 63 78
e 63 81
e 63 83
e 63 88
e 63 90
e 63 95
e 63 98
e 63 99
e 64 72
e 64 73
e 64 75
e 64 76
e 64 77
e 64 78
e 64 81
e 64 86
e 64 89
e 64 90
e 64 92
e 64 98
e 64 100
e 65 70
e 65 72
e 65 78
e 65 87
e 65 88
e 65 90
e 65 91
e 65 95
e 66 67
e 66 72
e 66 75
e 66 76
e 66 77
e 66 98
e 67 69
e 67 71
e 67 75
e 67 79
e 67 80
e 67 87
e 67 90
e 67 91
e 67 92
e 68 70
e 68 78
e 68 79
e 68 91
e 68 96
e 68 98
e 69 70
e 69 73
e 69 80
e 69 81
e 69 83
e 69 90
e 69 91
e 69 95
e 69 99
e 69 100
e 70 71
e 70 72
e 70 74
e 70 75
e 70 80
e 70 82
e 70 84
e 70 87
e 70 90
e 70 93
e 70 97
e 70 98
e 71 72
e 71 73
e 71 75
e 71 78
e 71 79
e 71 83
e 71 84
e 71 85
e 71 86
e 71 91
e 71 99
e 71 100
e 72 74
e 72 78
e 72 79
e 72 82
e 72 84
e 72 85
e 72 89
e 72 97
e 72 98
e 72 100
e 73 76
e 73 81
e 73 82
e 73 85
e 73 86
e 73 88
e 73 95
e 73 96
e 73 99
e 74 75
e 74 77
e 74 81
e 74 82
e 74 84
e 74 91
e 74 94
e 74 100
e 75 82
e 75 84
e 75 86
e 75 87
e 75 88
e 75 94
e 75 98
e 75 99
e 76 77
e 76 78
e 76 81
e 76 84
e 76 86
e 76 88
e 76 90
e 76 94
e 76 97
e 76 99
e 77 82
e 77 83
e 77 85
e 77 88
e 77 91
e 77 93
e 77 96
e 77 97
e 77 99
e 78 82
e 78 83
e 78 84
e 78 86
e 78 89
e 78 90
e 78 92
e 78 93
e 78 95
e 78 96
e 78 99
e 79 84
e 79 100
e 80 89
e 80 90
e 80 96
e 80 99
e 81 84
e 81 89
e 81 96
e 82 83
e 82 86
e 82 89
e 82 91
e 82 98
e 83 84
e 83 86
e 83 87
e 83 88
e 83 89
e 83 91
e 83 92
e 83 96
e 83 97
e 83 99
e 83 100
e 84 85
e 84 87
e 84 88
e 84 91
e 84 92
e 84 93
e 84 96
e 84 98
e 84 99
e 84 100
e 85 86
e 85 89
e 85 90
e 85 96
e 85 100
e 86 87
e 86 88
e 86 91
e 86 97
e 86 98
e 86 100
e 87 89
e 87 97
e 87 99
e 87 100
e 88 95
e 88 98
e 89 92
e 89 93
e 89 95
e 90 92
e 91 92
e 91 94
e 91 99
e 92 94
e 93 95
e 93 97
e 94 95
e 94 97
e 94 100
e 95 97
e 96 98
e 96 100
e 97 98
e 97 99
e 97 100
e 98 99
